language ESSENCE' 1.0

letting jobs = 102
letting horizon = 820
letting resourcesRenew = 2
letting resourcesNonrenew = 2
letting resourceLimits = [14, 15, 564, 552]
letting successors = [[2, 3, 4, 5, 6, 7, 8, 9, 10, 11, 12, 13, 16], [31, 26, 25, 24, 23, 21, 19, 15, 14], [31, 28, 27, 26, 23, 22, 21, 19, 17], [31, 28, 27, 26, 24, 23, 21, 18], [31, 30, 26, 25, 23, 21, 14], [30, 26, 25, 23, 21, 20, 14], [31, 28, 27, 26, 25, 22, 21, 19], [34, 33, 31, 30, 28, 25, 24, 23, 22], [33, 26, 24, 22, 21, 19], [31, 30, 25, 21, 17], [38, 34, 33, 32, 30, 28, 27, 25, 23], [38, 33, 30, 27, 26, 25, 20], [33, 30, 29, 28, 27, 20], [36, 34, 33, 29, 28, 27, 22], [33, 30, 29, 28, 20], [38, 33, 29, 20], [33, 29, 20], [39, 36, 33, 30, 29, 25], [30, 20], [42, 41, 39, 37, 36, 35, 34, 32], [42, 41, 38, 36, 34, 32, 29], [48, 46, 45, 42, 41, 38, 37, 35, 32], [58, 47, 45, 42, 40, 39, 37, 36], [50, 46, 41, 37, 29], [48, 45, 42, 37, 35], [47, 46, 45, 43, 42, 41, 40, 37], [58, 51, 47, 45, 44, 43, 42, 40], [50, 37, 35], [48, 45, 44, 35], [58, 51, 44, 43, 42, 41, 40], [58, 55, 50, 48, 40, 37], [51, 50, 47, 44, 43, 40], [67, 51, 50, 47, 44, 40], [60, 59, 55, 53, 50, 47, 46, 45], [60, 58, 47, 43, 40], [67, 60, 59, 56, 51, 50, 49, 46, 43], [67, 62, 59, 56, 54, 53, 51, 44], [62, 59, 54, 50, 47, 44], [67, 61, 60, 59, 53, 52, 51, 49, 48], [62, 61, 59, 54, 53, 52, 49], [67, 62, 61, 57, 54, 49], [67, 62, 61, 53, 50], [68, 62, 55, 53], [61, 60, 49], [67, 61, 49], [66, 62, 61, 54], [64, 57, 56], [72, 64, 63, 57], [74, 72, 71, 70, 69, 68, 66, 63], [72, 71, 70, 68, 66, 65, 63], [72, 71, 70, 69, 68, 65, 63], [80, 77, 72, 71, 70, 68, 66, 65], [72, 71, 69, 66, 65, 63], [72, 71, 65, 64, 63], [72, 70, 63, 61], [80, 77, 72, 71, 70, 68, 65], [80, 78, 76, 71, 70, 66, 65], [80, 78, 76, 72, 70, 66, 65], [79, 72, 65, 63], [72, 70, 68, 65], [80, 78, 71, 65], [80, 79, 77, 65], [89, 87, 81, 80, 78, 77, 76, 75, 73], [81, 76, 75, 73, 70], [75, 74, 73], [94, 89, 87, 82, 81, 79, 75], [94, 89, 88, 87, 82, 81], [94, 88, 82, 78, 76], [87, 82, 78, 76, 75], [94, 89, 87, 82, 79], [94, 83, 79, 75], [87, 82, 81], [101, 100, 94, 92, 88, 86, 82], [99, 89, 87, 81], [101, 100, 99, 98, 92, 91, 86, 85], [100, 99, 92, 91, 86, 85, 84], [100, 93, 91, 86, 85, 84], [101, 93, 85, 83], [101, 100, 93, 92, 91, 85], [99, 91, 90, 83], [93, 92, 83], [99, 96, 85, 84], [100, 84], [98, 97, 95], [97, 90], [97, 95], [101, 96], [99, 96], [91], [95], [96], [97], [96], [95], [102], [102], [102], [102], [102], [102], [102], []]
letting durations = [[0], [7, 8, 9], [2, 3, 4], [1, 2, 7], [4, 6, 10], [3, 5, 8], [2, 4, 6], [5, 9, 10], [1, 2, 6], [1, 2, 6], [1, 4, 5], [2, 4, 5], [1, 2, 10], [2, 4, 10], [3, 5, 9], [2, 3, 8], [2, 8, 9], [1, 6, 8], [2, 9, 10], [1, 7, 8], [1, 2, 9], [8, 9, 10], [4, 5, 6], [6, 8, 10], [1, 4, 8], [1, 4, 8], [3, 5, 10], [3, 9, 10], [6, 7, 8], [1, 4, 10], [1, 6, 8], [3, 4, 9], [3, 7, 9], [3, 7, 10], [1, 5, 6], [2, 7, 8], [2, 7, 10], [6, 7, 8], [5, 8, 9], [4, 5, 6], [1, 9, 10], [7, 8, 9], [4, 5, 10], [2, 5, 8], [2, 4, 9], [8, 9, 10], [4, 6, 9], [1, 3, 5], [5, 6, 7], [5, 7, 10], [7, 8, 10], [1, 3, 5], [6, 9, 10], [1, 2, 6], [2, 4, 5], [5, 7, 10], [6, 7, 10], [3, 5, 8], [1, 3, 9], [2, 5, 8], [2, 4, 6], [2, 3, 6], [7, 8, 9], [1, 2, 10], [2, 6, 7], [2, 4, 7], [4, 5, 7], [4, 9, 10], [7, 8, 10], [1, 3, 6], [8, 9, 10], [2, 4, 6], [3, 8, 10], [4, 6, 9], [1, 2, 3], [1, 8, 9], [1, 6, 7], [5, 8, 10], [2, 7, 10], [6, 8, 10], [4, 5, 10], [1, 2, 3], [7, 8, 10], [1, 7, 8], [1, 3, 4], [4, 7, 8], [2, 3, 10], [4, 8, 9], [2, 7, 10], [2, 5, 6], [2, 4, 8], [3, 9, 10], [6, 7, 8], [4, 5, 10], [1, 7, 10], [3, 4, 5], [1, 4, 7], [1, 2, 9], [2, 3, 8], [2, 7, 8], [5, 6, 9], [0]]
letting resourceUsage = [[[0, 0, 0, 0]], [[3, 4, 9, 9], [2, 3, 3, 7], [2, 3, 3, 6]], [[4, 3, 4, 7], [3, 2, 3, 5], [3, 2, 1, 1]], [[2, 4, 4, 8], [1, 4, 3, 6], [1, 4, 2, 1]], [[1, 4, 6, 10], [1, 3, 2, 10], [1, 3, 1, 10]], [[3, 3, 9, 5], [3, 3, 7, 3], [3, 2, 5, 3]], [[2, 2, 7, 5], [2, 1, 7, 3], [1, 1, 6, 3]], [[5, 3, 8, 8], [4, 2, 5, 7], [4, 2, 5, 6]], [[3, 2, 3, 8], [1, 2, 1, 4], [1, 2, 1, 3]], [[5, 3, 8, 8], [4, 3, 7, 8], [4, 3, 6, 8]], [[5, 4, 7, 4], [4, 3, 4, 4], [4, 3, 4, 2]], [[3, 5, 4, 7], [2, 5, 4, 5], [1, 5, 3, 4]], [[3, 4, 8, 4], [3, 3, 4, 4], [2, 2, 1, 3]], [[5, 2, 8, 4], [4, 2, 6, 2], [4, 1, 4, 2]], [[3, 4, 1, 6], [3, 4, 1, 2], [2, 3, 1, 1]], [[4, 5, 6, 5], [2, 4, 6, 4], [2, 4, 1, 3]], [[3, 4, 4, 5], [1, 2, 4, 5], [1, 2, 3, 5]], [[4, 4, 7, 7], [4, 3, 5, 7], [4, 2, 3, 7]], [[3, 1, 8, 3], [3, 1, 7, 3], [3, 1, 6, 2]], [[5, 3, 5, 7], [5, 3, 4, 5], [5, 2, 3, 4]], [[2, 4, 6, 8], [2, 4, 5, 7], [2, 4, 4, 6]], [[3, 3, 3, 8], [2, 2, 3, 6], [2, 2, 2, 3]], [[5, 5, 10, 5], [4, 3, 7, 4], [3, 3, 4, 2]], [[4, 5, 3, 3], [4, 5, 2, 3], [4, 5, 2, 1]], [[4, 2, 5, 6], [3, 2, 5, 6], [2, 2, 5, 4]], [[4, 2, 9, 8], [2, 1, 7, 3], [2, 1, 6, 2]], [[4, 3, 4, 9], [3, 3, 4, 9], [2, 3, 3, 8]], [[4, 2, 9, 1], [3, 2, 7, 1], [2, 2, 5, 1]], [[5, 4, 7, 3], [4, 2, 7, 3], [3, 1, 3, 2]], [[4, 3, 1, 9], [2, 3, 1, 9], [2, 3, 1, 8]], [[3, 3, 3, 6], [3, 3, 2, 5], [3, 2, 1, 5]], [[4, 4, 4, 5], [2, 4, 4, 4], [2, 4, 3, 2]], [[4, 2, 6, 3], [4, 2, 6, 2], [4, 2, 6, 1]], [[4, 2, 4, 8], [4, 2, 4, 7], [4, 2, 4, 6]], [[2, 4, 7, 3], [2, 3, 6, 3], [2, 1, 5, 3]], [[3, 3, 7, 7], [1, 3, 7, 6], [1, 3, 7, 5]], [[5, 2, 5, 4], [4, 1, 4, 4], [3, 1, 2, 3]], [[4, 3, 9, 7], [3, 3, 7, 6], [3, 3, 5, 5]], [[3, 3, 9, 2], [3, 3, 8, 2], [3, 1, 8, 2]], [[3, 5, 6, 8], [2, 3, 5, 8], [2, 3, 3, 8]], [[4, 1, 8, 9], [2, 1, 4, 9], [1, 1, 4, 7]], [[2, 2, 1, 2], [1, 1, 1, 3], [1, 1, 1, 2]], [[5, 4, 5, 8], [5, 3, 4, 7], [5, 3, 4, 4]], [[4, 5, 7, 6], [3, 5, 6, 4], [3, 5, 3, 3]], [[4, 3, 3, 10], [3, 2, 3, 9], [1, 2, 2, 7]], [[3, 4, 4, 7], [3, 3, 4, 4], [3, 3, 4, 3]], [[4, 4, 1, 3], [2, 2, 1, 3], [2, 2, 1, 2]], [[4, 3, 4, 8], [3, 2, 2, 8], [2, 1, 1, 8]], [[4, 4, 8, 9], [3, 4, 6, 9], [1, 3, 4, 7]], [[2, 4, 8, 7], [1, 2, 8, 4], [1, 2, 8, 3]], [[3, 1, 6, 3], [3, 1, 3, 3], [3, 1, 2, 3]], [[5, 1, 9, 2], [2, 1, 6, 2], [1, 1, 5, 2]], [[4, 5, 9, 6], [3, 4, 7, 5], [3, 4, 7, 2]], [[1, 3, 2, 7], [1, 2, 2, 6], [1, 1, 1, 2]], [[5, 4, 5, 8], [5, 3, 5, 7], [5, 3, 4, 7]], [[5, 3, 9, 3], [5, 3, 6, 2], [5, 3, 6, 1]], [[5, 4, 7, 7], [4, 2, 7, 6], [2, 2, 7, 6]], [[5, 3, 10, 6], [4, 3, 8, 4], [3, 3, 8, 4]], [[4, 1, 3, 5], [3, 1, 1, 5], [2, 1, 1, 5]], [[2, 4, 7, 2], [1, 3, 5, 2], [1, 1, 5, 2]], [[4, 3, 6, 7], [3, 1, 4, 7], [2, 1, 4, 6]], [[1, 4, 4, 8], [1, 4, 3, 7], [1, 4, 3, 6]], [[2, 2, 8, 3], [2, 2, 6, 3], [1, 2, 5, 3]], [[3, 5, 3, 9], [3, 3, 2, 9], [3, 3, 2, 7]], [[2, 4, 2, 7], [1, 2, 1, 5], [1, 1, 1, 2]], [[2, 3, 3, 6], [2, 2, 3, 6], [2, 2, 1, 6]], [[1, 5, 7, 5], [1, 4, 6, 4], [1, 4, 6, 3]], [[3, 4, 7, 9], [3, 3, 5, 9], [2, 1, 3, 9]], [[5, 3, 5, 6], [3, 2, 4, 5], [2, 2, 3, 3]], [[4, 3, 8, 5], [2, 2, 4, 3], [2, 2, 4, 2]], [[3, 3, 3, 10], [3, 2, 2, 9], [3, 2, 2, 7]], [[4, 4, 9, 7], [3, 3, 8, 7], [2, 3, 8, 4]], [[3, 4, 5, 5], [1, 2, 4, 4], [1, 2, 2, 4]], [[2, 2, 6, 8], [2, 2, 5, 8], [2, 2, 4, 8]], [[3, 3, 8, 4], [3, 3, 7, 4], [3, 1, 4, 4]], [[4, 3, 6, 1], [3, 3, 6, 1], [1, 3, 6, 1]], [[4, 4, 8, 6], [4, 4, 5, 5], [2, 4, 2, 3]], [[5, 5, 10, 9], [4, 3, 9, 8], [2, 3, 9, 7]], [[4, 3, 9, 5], [4, 2, 7, 4], [3, 1, 4, 3]], [[4, 5, 10, 7], [4, 5, 10, 5], [3, 5, 10, 2]], [[1, 4, 6, 3], [1, 4, 5, 2], [1, 3, 5, 1]], [[4, 4, 6, 7], [3, 4, 6, 5], [3, 4, 5, 5]], [[5, 4, 8, 3], [3, 2, 5, 3], [3, 2, 2, 3]], [[5, 4, 5, 10], [3, 4, 5, 9], [2, 4, 5, 8]], [[4, 4, 6, 7], [4, 4, 4, 6], [2, 4, 4, 4]], [[4, 1, 7, 10], [4, 1, 5, 8], [3, 1, 4, 8]], [[4, 4, 6, 7], [2, 3, 5, 7], [2, 3, 4, 2]], [[2, 5, 9, 3], [2, 4, 8, 1], [2, 3, 8, 1]], [[3, 4, 5, 6], [3, 4, 4, 5], [3, 4, 4, 4]], [[2, 5, 5, 5], [2, 4, 3, 4], [2, 4, 3, 3]], [[3, 2, 10, 7], [2, 2, 10, 6], [2, 2, 10, 5]], [[5, 4, 8, 4], [3, 2, 6, 4], [3, 1, 5, 3]], [[4, 5, 4, 5], [2, 3, 3, 4], [2, 3, 2, 3]], [[3, 3, 10, 5], [2, 3, 6, 5], [1, 3, 3, 2]], [[2, 3, 8, 7], [2, 1, 7, 6], [1, 1, 5, 4]], [[2, 4, 9, 4], [1, 3, 8, 3], [1, 3, 8, 2]], [[4, 4, 6, 10], [4, 2, 5, 8], [2, 2, 2, 8]], [[4, 3, 7, 9], [2, 3, 5, 7], [1, 2, 4, 2]], [[4, 2, 7, 3], [4, 1, 4, 3], [4, 1, 4, 2]], [[2, 3, 5, 7], [1, 2, 5, 7], [1, 1, 3, 5]], [[3, 3, 8, 3], [2, 3, 7, 2], [2, 3, 4, 1]], [[0, 0, 0, 0]]]
